c User generated cnf file
p cnf 12 23
12 7 -9 0 
-3 9 10 0 
-5 8 2 0 
10 8 -10 0 
1 9 -8 0 
6 10 -6 0 
5 -9 2 0 
-6 7 1 0 
7 -7 7 0 
11 11 -12 0 
2 -7 1 0 
2 2 -9 0 
-10 8 6 0 
12 -10 4 0 
-11 2 2 0 
1 10 -3 0 
-8 1 3 0 
6 8 -10 0 
-6 4 6 0 
12 11 -2 0 
5 -4 8 0 
-12 3 5 0 
-1 11 6 0 
